&BANDS
 outdir='../tmp/',
 prefix='FeAs2',
 filband='FeAs2.bands',
/
