&BANDS
 outdir='../tmp/',
 prefix='PtS2',
 filband='PtS2.bands',
/
